c Result of efficient AIG-to-CNF conversion using package CNF
p cnf 318 1034
-2 -3 111 0
-2 -44 111 0
-2 111 217 0
2 -111 0
2 3 44 -217 0
3 -281 -4 -32 0
3 281 -17 -32 0
-3 32 0
-3 -281 4 0
-3 281 17 0
4 282 -5 0
4 -282 -12 0
-4 -282 12 0
-4 282 5 0
5 283 -6 0
5 -283 -9 0
-5 -283 9 0
-5 283 6 0
6 284 -7 0
6 -284 -8 0
-6 -284 8 0
-6 284 7 0
7 285 -305 0
7 -285 -306 0
-7 -285 306 0
-7 285 305 0
8 285 -307 0
8 -285 -308 0
-8 -285 308 0
-8 285 307 0
9 284 -10 0
9 -284 -11 0
-9 -284 11 0
-9 284 10 0
10 285 -309 0
10 -285 -310 0
-10 -285 310 0
-10 285 309 0
11 285 -311 0
11 -285 -312 0
-11 -285 312 0
-11 285 311 0
12 283 -13 0
12 -283 -16 0
-12 -283 16 0
-12 283 13 0
13 284 -14 0
13 -284 -15 0
-13 -284 15 0
-13 284 14 0
14 285 -313 0
14 -285 -314 0
-14 -285 314 0
-14 285 313 0
15 285 -315 0
15 -285 -316 0
-15 -285 316 0
-15 285 315 0
16 284 285 -317 0
-16 317 0
-16 -285 0
-16 -284 0
17 -282 -18 0
17 282 -25 0
-17 282 25 0
-17 -282 18 0
18 283 -19 0
18 -283 -22 0
-18 -283 22 0
-18 283 19 0
19 284 -20 0
19 -284 -21 0
-19 -284 21 0
-19 284 20 0
20 285 -297 0
20 -285 -298 0
-20 -285 298 0
-20 285 297 0
21 285 -299 0
21 -285 -300 0
-21 -285 300 0
-21 285 299 0
22 284 -23 0
22 -284 -24 0
-22 -284 24 0
-22 284 23 0
23 285 -301 0
23 -285 -302 0
-23 -285 302 0
-23 285 301 0
24 285 -303 0
24 -285 -304 0
-24 -285 304 0
-24 285 303 0
25 -283 -26 0
25 283 -29 0
-25 283 29 0
-25 -283 26 0
26 284 -27 0
26 -284 -28 0
-26 -284 28 0
-26 284 27 0
27 285 -293 0
27 -285 -294 0
-27 -285 294 0
-27 285 293 0
28 285 -295 0
28 -285 -296 0
-28 -285 296 0
-28 285 295 0
29 284 -30 0
29 -284 -31 0
-29 -284 31 0
-29 284 30 0
30 285 -289 0
30 -285 -290 0
-30 -285 290 0
-30 285 289 0
31 285 -291 0
31 -285 -292 0
-31 -285 292 0
-31 285 291 0
32 -289 33 0
-32 289 0
-32 -33 0
-33 34 37 41 0
33 -34 0
33 -37 0
33 -41 0
-34 256 257 35 36 0
34 -256 0
34 -36 0
34 -35 0
34 -257 0
-35 258 259 260 261 0
35 -261 0
35 -260 0
35 -258 0
35 -259 0
-36 254 255 0
36 -254 0
36 -255 0
-37 271 272 38 40 0
37 -271 0
37 -40 0
37 -38 0
37 -272 0
-38 276 277 278 39 0
38 -39 0
38 -278 0
38 -276 0
38 -277 0
-39 270 279 0
39 -270 0
39 -279 0
-40 273 274 275 0
40 -273 0
40 -275 0
40 -274 0
-41 263 264 42 43 0
41 -263 0
41 -43 0
41 -42 0
41 -264 0
-42 262 268 269 280 0
42 -280 0
42 -269 0
42 -262 0
42 -268 0
-43 265 266 267 0
43 -265 0
43 -267 0
43 -266 0
-44 45 95 0
44 -45 0
44 -95 0
45 34 -46 0
45 34 -63 -64 0
-45 -34 0
-45 46 64 0
-45 46 63 0
46 -281 -47 -56 0
46 281 -47 -48 0
-46 47 0
-46 -281 56 0
-46 281 48 0
47 -287 37 41 0
-47 287 0
-47 -37 0
-47 -41 0
48 282 -49 0
48 -282 -53 0
-48 -282 53 0
-48 282 49 0
49 283 -50 0
49 -283 -52 0
-49 -283 52 0
-49 283 50 0
50 284 -51 0
50 -284 -30 0
-50 -284 30 0
-50 284 51 0
51 285 -287 0
51 -285 -288 0
-51 -285 288 0
-51 285 287 0
52 284 -31 0
52 -284 -27 0
-52 -284 27 0
-52 284 31 0
53 283 -54 0
53 -283 -55 0
-53 -283 55 0
-53 283 54 0
54 284 -28 0
54 -284 -20 0
-54 -284 20 0
-54 284 28 0
55 284 -21 0
55 -284 -23 0
-55 -284 23 0
-55 284 21 0
56 282 -57 0
56 -282 -60 0
-56 -282 60 0
-56 282 57 0
57 283 -58 0
57 -283 -59 0
-57 -283 59 0
-57 283 58 0
58 284 -24 0
58 -284 -7 0
-58 -284 7 0
-58 284 24 0
59 284 -8 0
59 -284 -10 0
-59 -284 10 0
-59 284 8 0
60 283 -61 0
60 -283 -62 0
-60 -283 62 0
-60 283 61 0
61 284 -11 0
61 -284 -14 0
-61 -284 14 0
-61 284 11 0
62 284 -15 0
62 -284 285 -317 0
-62 -284 -285 0
-62 284 15 0
-62 -284 317 0
63 -286 37 41 0
-63 286 0
-63 -37 0
-63 -41 0
-64 -281 80 0
-64 281 65 0
64 281 -65 0
64 -281 -80 0
65 282 -66 0
65 -282 -73 0
-65 -282 73 0
-65 282 66 0
66 283 -67 0
66 -283 -70 0
-66 -283 70 0
-66 283 67 0
67 284 -68 0
67 -284 -69 0
-67 -284 69 0
-67 284 68 0
68 285 -286 0
68 -285 -287 0
-68 -285 287 0
-68 285 286 0
69 285 -288 0
69 -285 -289 0
-69 -285 289 0
-69 285 288 0
70 284 -71 0
70 -284 -72 0
-70 -284 72 0
-70 284 71 0
71 285 -290 0
71 -285 -291 0
-71 -285 291 0
-71 285 290 0
72 285 -292 0
72 -285 -293 0
-72 -285 293 0
-72 285 292 0
73 283 -74 0
73 -283 -77 0
-73 -283 77 0
-73 283 74 0
74 284 -75 0
74 -284 -76 0
-74 -284 76 0
-74 284 75 0
75 285 -294 0
75 -285 -295 0
-75 -285 295 0
-75 285 294 0
76 285 -296 0
76 -285 -297 0
-76 -285 297 0
-76 285 296 0
77 284 -78 0
77 -284 -79 0
-77 -284 79 0
-77 284 78 0
78 285 -298 0
78 -285 -299 0
-78 -285 299 0
-78 285 298 0
79 285 -300 0
79 -285 -301 0
-79 -285 301 0
-79 285 300 0
80 282 -81 0
80 -282 -88 0
-80 -282 88 0
-80 282 81 0
81 283 -82 0
81 -283 -85 0
-81 -283 85 0
-81 283 82 0
82 284 -83 0
82 -284 -84 0
-82 -284 84 0
-82 284 83 0
83 285 -302 0
83 -285 -303 0
-83 -285 303 0
-83 285 302 0
84 285 -304 0
84 -285 -305 0
-84 -285 305 0
-84 285 304 0
85 284 -86 0
85 -284 -87 0
-85 -284 87 0
-85 284 86 0
86 285 -306 0
86 -285 -307 0
-86 -285 307 0
-86 285 306 0
87 285 -308 0
87 -285 -309 0
-87 -285 309 0
-87 285 308 0
88 283 -89 0
88 -283 -92 0
-88 -283 92 0
-88 283 89 0
89 284 -90 0
89 -284 -91 0
-89 -284 91 0
-89 284 90 0
90 285 -310 0
90 -285 -311 0
-90 -285 311 0
-90 285 310 0
91 285 -312 0
91 -285 -313 0
-91 -285 313 0
-91 285 312 0
92 284 -93 0
92 -284 -94 0
-92 -284 94 0
-92 284 93 0
93 285 -314 0
93 -285 -315 0
-93 -285 315 0
-93 285 314 0
94 285 -316 0
94 -285 -317 0
-94 -285 317 0
-94 285 316 0
95 -281 -96 -110 0
95 281 -103 -110 0
-95 110 0
-95 -281 96 0
-95 281 103 0
96 -282 -97 0
96 282 -100 0
-96 282 100 0
-96 -282 97 0
97 -283 -98 0
97 283 -99 0
-97 283 99 0
-97 -283 98 0
98 284 -285 -317 0
98 284 285 -316 0
-98 -284 0
-98 -285 317 0
-98 285 316 0
99 284 -91 0
99 -284 -93 0
-99 -284 93 0
-99 284 91 0
100 283 -101 0
100 -283 -102 0
-100 -283 102 0
-100 283 101 0
101 284 -84 0
101 -284 -86 0
-101 -284 86 0
-101 284 84 0
102 284 -87 0
102 -284 -90 0
-102 -284 90 0
-102 284 87 0
103 -282 -104 0
103 282 -107 0
-103 282 107 0
-103 -282 104 0
104 -283 -105 0
104 283 -106 0
-104 283 106 0
-104 -283 105 0
105 284 -79 0
105 -284 -83 0
-105 -284 83 0
-105 284 79 0
106 284 -76 0
106 -284 -78 0
-106 -284 78 0
-106 284 76 0
107 -283 -108 0
107 283 -109 0
-107 283 109 0
-107 -283 108 0
108 284 -72 0
108 -284 -75 0
-108 -284 75 0
-108 284 72 0
109 284 -69 0
109 -284 -71 0
-109 -284 71 0
-109 284 69 0
110 -288 33 0
-110 288 0
-110 -33 0
-111 -45 212 0
-111 112 203 212 0
111 -212 0
111 45 -112 0
111 45 -203 0
112 257 113 -195 95 0
-112 -257 0
-112 -95 0
-112 195 0
-112 -113 0
-113 114 185 0
113 -114 0
113 -185 0
-114 115 156 166 173 0
114 -173 0
114 -115 0
114 -166 0
114 -156 0
-115 116 123 136 141 0
115 -141 0
115 -136 0
115 -116 0
115 -123 0
116 281 -117 -122 0
116 -281 -120 -122 0
-116 122 0
-116 -281 120 0
-116 281 117 0
117 282 -118 0
117 -282 -119 0
-117 -282 119 0
-117 282 118 0
118 283 -77 0
118 -283 -82 0
-118 -283 82 0
-118 283 77 0
119 283 -85 0
119 -283 -89 0
-119 -283 89 0
-119 283 85 0
120 282 -121 0
-120 -282 0
-120 121 0
121 283 -92 0
-121 -283 0
-121 92 0
122 -298 33 0
-122 298 0
-122 -33 0
123 281 33 -129 0
123 -281 33 -124 0
-123 -33 0
-123 281 129 0
-123 -281 124 0
-124 125 127 0
-124 299 300 0
-124 300 127 0
-124 299 125 0
124 -300 -125 0
124 -299 -127 0
125 282 -126 0
-125 -282 0
-125 126 0
126 283 -98 0
-126 -283 0
-126 98 0
127 282 -128 0
-127 -282 0
-127 128 0
128 283 -62 0
-128 -283 0
-128 62 0
-129 130 133 0
-129 299 130 0
129 -130 0
129 -299 -133 0
130 -282 -300 -132 0
130 282 -300 -131 0
-130 300 0
-130 -282 132 0
-130 282 131 0
131 283 -105 0
131 -283 -101 0
-131 -283 101 0
-131 283 105 0
132 283 -102 0
132 -283 -99 0
-132 -283 99 0
-132 283 102 0
-133 -282 135 0
-133 282 134 0
133 282 -134 0
133 -282 -135 0
134 283 -55 0
134 -283 -58 0
-134 -283 58 0
-134 283 55 0
135 283 -59 0
135 -283 -61 0
-135 -283 61 0
-135 283 59 0
136 137 -138 0
136 -312 137 -140 0
-136 -137 0
-136 138 140 0
-136 312 138 0
-137 281 33 0
137 -281 0
137 -33 0
138 -311 -139 0
-138 311 0
-138 139 0
139 282 -60 0
-139 -282 0
-139 60 0
140 282 -97 0
-140 -282 0
-140 97 0
-141 142 147 149 0
141 -142 0
141 -149 0
141 -147 0
-142 143 145 0
142 -143 0
142 -145 0
143 -306 137 -144 0
-143 306 0
-143 -137 0
-143 144 0
144 282 -119 0
144 -282 -121 0
-144 -282 121 0
-144 282 119 0
145 -307 137 -146 0
-145 307 0
-145 -137 0
-145 146 0
146 -282 -128 0
146 282 -135 0
-146 282 135 0
-146 -282 128 0
147 137 -148 0
147 -304 137 -96 0
-147 -137 0
-147 148 96 0
-147 304 148 0
148 -305 -4 0
-148 305 0
-148 4 0
149 137 -151 0
149 -308 137 -150 0
-149 -137 0
-149 308 151 0
-149 150 151 0
150 -282 -126 0
150 282 -132 0
-150 282 132 0
-150 -282 126 0
-151 310 152 0
-151 309 155 0
-151 152 155 0
-151 309 310 0
151 -309 -152 0
151 -310 -155 0
152 282 -153 0
152 -282 -154 0
-152 -282 154 0
-152 282 153 0
153 283 -9 0
153 -283 -13 0
-153 -283 13 0
-153 283 9 0
154 283 284 285 -317 0
-154 317 0
-154 -285 0
-154 -283 0
-154 -284 0
155 282 -88 0
-155 -282 0
-155 88 0
-156 157 161 0
156 -157 0
156 -161 0
157 281 -158 -160 0
157 -281 -159 -160 0
-157 160 0
-157 -281 159 0
-157 281 158 0
158 -282 -5 0
158 282 -18 0
-158 282 18 0
-158 -282 5 0
159 282 -12 0
-159 -282 0
-159 12 0
160 -297 33 0
-160 297 0
-160 -33 0
161 281 33 -163 0
161 -281 33 -162 0
-161 -33 0
-161 281 163 0
-161 -281 162 0
-162 296 139 0
-162 295 140 0
-162 139 140 0
-162 295 296 0
162 -295 -139 0
162 -296 -140 0
-163 164 165 0
-163 295 164 0
163 -164 0
163 -295 -165 0
164 282 -296 -104 0
164 -282 -296 -100 0
-164 296 0
-164 -282 100 0
-164 282 104 0
-165 -282 57 0
-165 282 53 0
165 282 -53 0
165 -282 -57 0
-166 167 168 0
166 -167 0
166 -168 0
167 -303 -56 137 0
-167 303 0
-167 56 0
-167 -137 0
-168 80 169 0
-168 -137 169 0
-168 302 169 0
168 -169 0
168 -302 -80 137 0
169 -281 33 -172 0
169 33 -170 -172 0
-169 172 0
-169 -33 0
-169 281 170 0
170 -282 -153 0
170 282 -171 0
-170 282 171 0
-170 -282 153 0
171 -283 -6 0
171 283 -22 0
-171 283 22 0
-171 -283 6 0
172 281 -301 0
172 282 -301 -154 0
-172 301 0
-172 -281 154 0
-172 -281 -282 0
-173 174 181 0
173 -174 0
173 -181 0
-174 175 180 0
-174 281 175 178 0
174 -175 0
174 -281 -180 0
174 -178 -180 0
175 -281 -155 -177 0
175 281 -176 -177 0
-175 177 0
-175 -281 155 0
-175 281 176 0
176 282 -73 0
176 -282 -81 0
-176 -282 81 0
-176 282 73 0
177 -294 33 0
-177 294 0
-177 -33 0
178 -282 -171 0
178 282 -179 0
-178 282 179 0
-178 -282 171 0
179 -283 -19 0
179 283 -26 0
-179 283 26 0
-179 -283 19 0
180 281 -293 33 0
180 -293 33 -152 0
-180 -33 0
-180 293 0
-180 -281 152 0
181 -281 -150 -184 0
181 281 -182 -184 0
-181 184 0
-181 -281 150 0
-181 281 182 0
182 -282 -131 0
182 282 -183 0
-182 282 183 0
-182 -282 131 0
183 -283 -106 0
183 283 -108 0
-183 283 108 0
-183 -283 106 0
184 -292 33 0
-184 292 0
-184 -33 0
-185 186 3 0
185 -186 0
185 -3 0
-186 187 191 0
186 -187 0
186 -191 0
187 -281 -144 -190 0
187 281 -188 -190 0
-187 190 0
-187 -281 144 0
-187 281 188 0
188 -282 -118 0
188 282 -189 0
-188 282 189 0
-188 -282 118 0
189 283 -70 0
189 -283 -74 0
-189 -283 74 0
-189 283 70 0
190 -290 33 0
-190 290 0
-190 -33 0
191 -281 -146 -194 0
191 281 -192 -194 0
-191 194 0
-191 -281 146 0
-191 281 192 0
192 -282 -134 0
192 282 -193 0
-192 282 193 0
-192 -282 134 0
193 283 -52 0
193 -283 -54 0
-193 -283 54 0
-193 283 52 0
194 -291 33 0
-194 291 0
-194 -33 0
195 -196 -197 0
-195 196 0
-195 197 0
196 -313 137 -159 0
-196 313 0
-196 -137 0
-196 159 0
197 -198 -199 0
197 -273 198 0
-197 -198 199 0
-197 273 198 0
198 -314 -120 137 0
-198 314 0
-198 120 0
-198 -137 0
199 -200 -201 0
199 -281 200 0
-199 -200 201 0
-199 281 200 0
200 -315 -127 137 0
-200 315 0
-200 127 0
-200 -137 0
201 -285 202 0
-201 285 0
-201 -202 0
202 -316 -125 137 0
-202 316 0
-202 125 0
-202 -137 0
203 256 -196 204 206 0
-203 -256 0
-203 -206 0
-203 -204 0
-203 196 0
-204 147 185 95 205 0
204 -185 0
204 -95 0
204 -147 0
204 -205 0
-205 156 173 0
205 -156 0
205 -173 0
-206 196 207 209 0
-206 207 209 -210 0
206 -209 0
206 -207 0
206 -196 210 0
-207 116 208 0
207 -116 0
207 -208 0
-208 136 149 0
208 -136 0
208 -149 0
-209 123 142 166 0
209 -166 0
209 -142 0
209 -123 0
210 -198 -211 0
210 -272 198 0
-210 -198 211 0
-210 272 198 0
211 -284 -200 0
211 -280 200 0
-211 280 200 0
-211 284 -200 0
212 255 113 44 -213 0
-212 -255 0
-212 213 0
-212 -44 0
-212 -113 0
213 -196 -214 0
-213 196 0
-213 214 0
214 -198 -215 0
214 -271 198 0
-214 -198 215 0
-214 271 198 0
215 -200 -216 0
215 -279 200 0
-215 -200 216 0
-215 279 200 0
216 -285 -202 0
216 -283 202 0
-216 283 202 0
-216 285 -202 0
-217 -187 226 240 0
-217 218 226 240 0
217 -240 0
217 -226 0
217 187 -218 0
-218 222 225 0
-218 -219 222 0
-218 -276 222 0
218 -222 0
218 276 219 -225 0
-219 173 191 220 0
219 -173 0
219 -191 0
219 -220 0
-220 196 208 209 221 0
220 -196 0
220 -221 0
220 -209 0
220 -208 0
-221 116 147 157 161 0
221 -161 0
221 -157 0
221 -116 0
221 -147 0
222 277 219 -223 0
-222 223 0
-222 -219 0
-222 -277 0
223 -198 -224 0
223 -277 198 0
-223 -198 224 0
-223 277 198 0
224 200 -201 0
-224 -200 0
-224 201 0
225 -276 198 0
225 -284 -198 200 0
-225 276 198 0
-225 284 -198 0
-225 -198 -200 0
-226 227 235 237 239 0
226 -239 0
226 -237 0
226 -227 0
226 -235 0
227 -196 -228 0
227 -228 -234 0
227 283 -228 0
-227 228 0
-227 -283 196 234 0
228 229 -231 232 233 0
-228 -233 0
-228 -229 0
-228 -232 0
-228 231 0
-229 156 196 207 230 0
229 -230 0
229 -156 0
229 -207 0
229 -196 0
-230 181 186 0
230 -181 0
230 -186 0
231 200 -216 0
-231 -200 0
-231 216 0
-232 123 145 168 0
232 -168 0
232 -145 0
232 -123 0
-233 143 147 167 174 0
233 -174 0
233 -167 0
233 -143 0
233 -147 0
-234 114 186 0
234 -114 0
234 -186 0
235 268 -196 234 -236 0
-235 -268 0
-235 236 0
-235 -234 0
-235 196 0
236 -284 198 200 0
-236 284 0
-236 -200 0
-236 -198 0
237 271 -214 238 0
-237 -238 0
-237 214 0
-237 -271 0
-238 174 220 230 0
238 -174 0
238 -220 0
238 -230 0
239 267 -196 -231 234 0
-239 -267 0
-239 -234 0
-239 231 0
-239 196 0
-240 241 245 247 252 0
240 -247 0
240 -252 0
240 -241 0
240 -245 0
-241 -238 243 0
-241 242 243 0
-241 -280 243 0
241 -243 0
241 280 238 -242 0
242 198 -211 0
-242 -198 0
-242 211 0
-243 210 244 0
-243 -272 244 0
-243 -238 244 0
243 -244 0
243 272 -210 238 0
244 279 198 -215 238 0
-244 -279 0
-244 -238 0
-244 215 0
-244 -198 0
-245 197 246 0
-245 -273 246 0
-245 -238 246 0
245 -246 0
245 273 -197 238 0
246 261 -196 -223 234 0
-246 -261 0
-246 -234 0
-246 223 0
-246 196 0
-247 -269 248 0
-247 -234 248 0
-247 248 251 0
247 -248 0
247 269 234 -251 0
-248 249 250 0
-248 -234 249 0
-248 -264 249 0
248 -249 0
248 264 234 -250 0
249 260 -196 -225 234 0
-249 -260 0
-249 -234 0
-249 225 0
-249 196 0
250 -196 -242 0
-250 196 0
-250 242 0
251 -196 198 -224 0
-251 196 0
-251 -198 0
-251 224 0
252 281 238 -253 0
252 -234 238 -253 0
-252 253 0
-252 -238 0
-252 -281 234 0
253 198 -199 0
-253 -198 0
-253 199 0
-318 0
2 0

